results_rootrelaxation/bin018_070_044.srr.sol
solution status: optimal solution found
objective value:                                    4
_var2779_                          0.0158283510063177 	(obj:0)
_var2944_                           0.104212807242972 	(obj:0)
_var2963_                           0.174483252708319 	(obj:0)
_var2984_                           0.011824967364831 	(obj:0)
_var2991_                          0.0389622868930314 	(obj:0)
_var3024_                          0.0477218463865414 	(obj:0)
_var3040_                           0.166945214729277 	(obj:0)
_var3098_                            0.20591260475164 	(obj:0)
_var3117_                           0.208894170094938 	(obj:0)
_var3139_                           0.221452447963582 	(obj:0)
_var3140_                           0.058745625315153 	(obj:2)
_var3157_                           0.167367958637256 	(obj:0)
_var3189_                          0.0886917518127209 	(obj:0)
_var3190_                           0.185191759125446 	(obj:0)
_var3193_                           0.143865577410689 	(obj:0)
_var3196_                           0.094606665804144 	(obj:0)
_var3200_                           0.172655646371568 	(obj:0)
_var3201_                          0.0332872663179395 	(obj:0)
_var3206_                          0.0904048221305751 	(obj:0)
_var3207_                           0.258746914563105 	(obj:0)
_var3227_                          0.0445665779068896 	(obj:1)
_var3230_                           0.340317671356727 	(obj:0)
_var3238_                          0.0452042539432249 	(obj:1)
_var3242_                           0.162077470836914 	(obj:1)
_var3244_                           0.100101493748024 	(obj:0)
_var3248_                          0.0718260435788666 	(obj:1)
_var3249_                           0.188442280311086 	(obj:0)
_var3250_                          0.0926861483837148 	(obj:0)
_var3253_                           0.109162927098119 	(obj:0)
_var3256_                          0.0781532955576096 	(obj:0)
_var3262_                          0.0386824059034733 	(obj:0)
_var3266_                          0.0315133304655102 	(obj:0)
_var3269_                           0.111704071238036 	(obj:0)
_var3279_                           0.247678366193507 	(obj:0)
_var3289_                          0.0236222524079243 	(obj:0)
_var3296_                          0.0388249788533532 	(obj:0)
_var3297_                          0.0678878107578957 	(obj:0)
_var3299_                           0.134900568290092 	(obj:2)
_var3300_                           0.316399058751903 	(obj:0)
_var3305_                           0.221452447963582 	(obj:1)
_var3307_                           0.494299583072814 	(obj:0)
_var3314_                          0.0379407592704305 	(obj:0)
_var3328_                           0.450442033655607 	(obj:0)
_var3329_                           0.124247993105265 	(obj:1)
_var3335_                           0.253372483827143 	(obj:0)
_var3340_                          0.0709720304215577 	(obj:0)
_var3341_                           0.208076779417504 	(obj:0)
_var3342_                          0.0190292313620556 	(obj:0)
_var3346_                         0.00231783492644348 	(obj:0)
_var3351_                           0.122147091799307 	(obj:0)
_var3352_                          0.0465549561227447 	(obj:0)
_var3362_                           0.399171489202883 	(obj:0)
_var3363_                           0.144434514925685 	(obj:0)
_var3364_                         0.00138540648423354 	(obj:0)
_var3367_                            0.11971530469523 	(obj:1)
_var3374_                           0.276758807691871 	(obj:1)
_var3380_                         0.00465349295249029 	(obj:0)
_var3381_                           0.147233037230067 	(obj:0)
_var3382_                          0.0761918731817798 	(obj:0)
_var3387_                          0.0386597690497541 	(obj:0)
_var3389_                          0.0441143569830108 	(obj:0)
_var3399_                          0.0737378962158142 	(obj:0)
_var3400_                           0.239418075294185 	(obj:0)
_var3404_                           0.116813927560862 	(obj:0)
_var3407_                           0.354765935757724 	(obj:1)
_var3408_                          0.0101650421293346 	(obj:0)
_var3412_                         0.00348424787162191 	(obj:1)
_var3415_                           0.108504002894286 	(obj:0)
_var3418_                          0.0700151121288808 	(obj:1)
_var3419_                           0.191198833322779 	(obj:0)
_var3420_                          0.0890944497774135 	(obj:0)
_var3421_                           0.169676438566327 	(obj:0)
_var3423_                         0.00634231063242518 	(obj:0)
_var3424_                           0.397555698048769 	(obj:2)
_var3427_                          0.0680804151799715 	(obj:0)
_var3429_                         0.00321341438036066 	(obj:1)
_var3433_                           0.238048485634928 	(obj:0)
_var3439_                          0.0909607267873254 	(obj:0)
_var3440_                           0.116146660626764 	(obj:0)
_var3445_                            0.15278796087391 	(obj:0)
_var3448_                         0.00246793744123813 	(obj:1)
_var3451_                           0.244115810854243 	(obj:0)
_var3452_                          0.0983990490989909 	(obj:1)
_var3454_                           0.110058677528684 	(obj:0)
_var3461_                           0.256340756230336 	(obj:0)
_var3463_                           0.143185550462677 	(obj:1)
_var3464_                           0.150386477141509 	(obj:0)
_var3466_                          0.0291009854405292 	(obj:1)
_var3468_                          0.0325001104590658 	(obj:0)
_var3469_                           0.204849635277252 	(obj:1)
_var3470_                           0.142949892006565 	(obj:0)
_var3476_                           0.212269455652723 	(obj:0)
_var3478_                           0.141238100005235 	(obj:0)
_var3480_                           0.205881475372526 	(obj:0)
_var3483_                           0.104705802658277 	(obj:0)
_var3485_                           0.010871714305374 	(obj:0)
_var3486_                         0.000189886437920062 	(obj:2)
_var3489_                           0.288259501041415 	(obj:0)
_var3490_                           0.134940574330082 	(obj:0)
_var3491_                           0.269065220717497 	(obj:0)
_var3493_                           0.247792200931141 	(obj:0)
_var3494_                           0.104337998125659 	(obj:0)
_var3495_                          0.0308595838874753 	(obj:0)
_var3496_                         0.00271393693070582 	(obj:1)
_var3497_                          0.0031782652437217 	(obj:0)
_var3500_                           0.083120315199525 	(obj:0)
_var3501_                           0.104324307061171 	(obj:0)
_var3502_                          0.0360206896784329 	(obj:0)
_var3503_                          0.0373955459504696 	(obj:1)
_var3504_                         0.00734951334284925 	(obj:0)
_var3507_                           0.401221399701929 	(obj:0)
_var3512_                           0.163745118443564 	(obj:0)
_var3513_                           0.169118107576713 	(obj:0)
_var3514_                           0.208460438434611 	(obj:1)
_var3517_                          0.0724466504394066 	(obj:0)
_var3518_                           0.181772003528884 	(obj:0)
_var3520_                          0.0501311617825204 	(obj:1)
_var3522_                           0.176008573778863 	(obj:0)
_var3525_                          0.0402690024346913 	(obj:0)
_var3527_                          0.0253636521778787 	(obj:1)
_var3528_                         0.00870753963950933 	(obj:0)
_var3530_                         0.00998887296653833 	(obj:0)
_var3533_                           0.234611776523967 	(obj:1)
_var3535_                           0.175226095812141 	(obj:0)
_var3536_                         0.00214926224782974 	(obj:0)
_var3537_                           0.212577692759777 	(obj:1)
_var3539_                          0.0912014465800234 	(obj:0)
_var3540_                         0.00802211265843339 	(obj:0)
_var3541_                          0.0266630593753861 	(obj:0)
_var3542_                           0.157054261946598 	(obj:0)
_var3544_                          0.0720239536379972 	(obj:0)
_var3545_                          0.0929271371653132 	(obj:0)
_var3546_                           0.141610220948072 	(obj:0)
_var3548_                           0.044405553445159 	(obj:1)
_var3551_                          0.0697092652805873 	(obj:0)
_var3556_                          0.0368104567584416 	(obj:0)
_var3558_                          0.0267396495409831 	(obj:0)
_var3559_                          0.0489510894659571 	(obj:0)
_var3560_                          0.0262259182299253 	(obj:1)
_var3562_                         0.00167269965675987 	(obj:0)
_var3567_                          0.0317875863300312 	(obj:0)
_var3568_                          0.0108869370362137 	(obj:0)
_var3569_                         0.00590848164392269 	(obj:0)
